18
10
7 5 9 10 13
2 6 5 17 7 15 0 8 11
9 11 0 13 8 10 14
0 12 4 6 1 9 16 5 10 7 14
8 16 5 3 0 14 9 17 12 15 13 6 11 1 7 10
8 7 4 9 10 5 17 3 15 14 0 6 13 11
9 1 2 6 16
6 2 0 7 12 4 5 13 16
9 8 14 2 15 3 12 6 16 1 7 0 11 5 4
3 17 6 11 1 9 16 15 5 12 4 14 7 13 0 2
